output/lp/model_GG_burma14.lp
\ENCODING=ISO-8859-1
\Problem name: TSP

Minimize
 obj1: x(1,1) + 153 x(1,2) + 510 x(1,3) + 706 x(1,4) + 966 x(1,5) + 581 x(1,6)
       + 455 x(1,7) + 70 x(1,8) + 160 x(1,9) + 372 x(1,10) + 157 x(1,11)
       + 567 x(1,12) + 342 x(1,13) + 398 x(1,14) + 153 x(2,1) + x(2,2)
       + 422 x(2,3) + 664 x(2,4) + 997 x(2,5) + 598 x(2,6) + 507 x(2,7)
       + 197 x(2,8) + 311 x(2,9) + 479 x(2,10) + 310 x(2,11) + 581 x(2,12)
       + 417 x(2,13) + 376 x(2,14) + 510 x(3,1) + 422 x(3,2) + x(3,3)
       + 289 x(3,4) + 744 x(3,5) + 390 x(3,6) + 437 x(3,7) + 491 x(3,8)
       + 645 x(3,9) + 880 x(3,10) + 618 x(3,11) + 374 x(3,12) + 455 x(3,13)
       + 211 x(3,14) + 706 x(4,1) + 664 x(4,2) + 289 x(4,3) + x(4,4)
       + 491 x(4,5) + 265 x(4,6) + 410 x(4,7) + 664 x(4,8) + 804 x(4,9)
       + 1070 x(4,10) + 768 x(4,11) + 259 x(4,12) + 499 x(4,13) + 310 x(4,14)
       + 966 x(5,1) + 997 x(5,2) + 744 x(5,3) + 491 x(5,4) + x(5,5)
       + 400 x(5,6) + 514 x(5,7) + 902 x(5,8) + 990 x(5,9) + 1261 x(5,10)
       + 947 x(5,11) + 418 x(5,12) + 635 x(5,13) + 636 x(5,14) + 581 x(6,1)
       + 598 x(6,2) + 390 x(6,3) + 265 x(6,4) + 400 x(6,5) + x(6,6)
       + 168 x(6,7) + 522 x(6,8) + 634 x(6,9) + 910 x(6,10) + 593 x(6,11)
       + 19 x(6,12) + 284 x(6,13) + 239 x(6,14) + 455 x(7,1) + 507 x(7,2)
       + 437 x(7,3) + 410 x(7,4) + 514 x(7,5) + 168 x(7,6) + x(7,7)
       + 389 x(7,8) + 482 x(7,9) + 757 x(7,10) + 439 x(7,11) + 163 x(7,12)
       + 124 x(7,13) + 232 x(7,14) + 70 x(8,1) + 197 x(8,2) + 491 x(8,3)
       + 664 x(8,4) + 902 x(8,5) + 522 x(8,6) + 389 x(8,7) + x(8,8)
       + 154 x(8,9) + 406 x(8,10) + 133 x(8,11) + 508 x(8,12) + 273 x(8,13)
       + 355 x(8,14) + 160 x(9,1) + 311 x(9,2) + 645 x(9,3) + 804 x(9,4)
       + 990 x(9,5) + 634 x(9,6) + 482 x(9,7) + 154 x(9,8) + x(9,9)
       + 276 x(9,10) + 43 x(9,11) + 623 x(9,12) + 358 x(9,13) + 498 x(9,14)
       + 372 x(10,1) + 479 x(10,2) + 880 x(10,3) + 1070 x(10,4) + 1261 x(10,5)
       + 910 x(10,6) + 757 x(10,7) + 406 x(10,8) + 276 x(10,9) + x(10,10)
       + 318 x(10,11) + 898 x(10,12) + 633 x(10,13) + 761 x(10,14)
       + 157 x(11,1) + 310 x(11,2) + 618 x(11,3) + 768 x(11,4) + 947 x(11,5)
       + 593 x(11,6) + 439 x(11,7) + 133 x(11,8) + 43 x(11,9) + 318 x(11,10)
       + x(11,11) + 582 x(11,12) + 315 x(11,13) + 464 x(11,14) + 567 x(12,1)
       + 581 x(12,2) + 374 x(12,3) + 259 x(12,4) + 418 x(12,5) + 19 x(12,6)
       + 163 x(12,7) + 508 x(12,8) + 623 x(12,9) + 898 x(12,10) + 582 x(12,11)
       + x(12,12) + 275 x(12,13) + 221 x(12,14) + 342 x(13,1) + 417 x(13,2)
       + 455 x(13,3) + 499 x(13,4) + 635 x(13,5) + 284 x(13,6) + 124 x(13,7)
       + 273 x(13,8) + 358 x(13,9) + 633 x(13,10) + 315 x(13,11) + 275 x(13,12)
       + x(13,13) + 247 x(13,14) + 398 x(14,1) + 376 x(14,2) + 211 x(14,3)
       + 310 x(14,4) + 636 x(14,5) + 239 x(14,6) + 232 x(14,7) + 355 x(14,8)
       + 498 x(14,9) + 761 x(14,10) + 464 x(14,11) + 221 x(14,12)
       + 247 x(14,13) + x(14,14) + 0 y(1,1) + 0 y(2,2) + 0 y(3,3) + 0 y(4,4)
       + 0 y(5,5) + 0 y(6,6) + 0 y(7,7) + 0 y(8,8) + 0 y(9,9) + 0 y(10,10)
       + 0 y(11,11) + 0 y(12,12) + 0 y(13,13) + 0 y(14,14)
Subject To
 in_degree(1)#0:                 x(1,1) + x(2,1) + x(3,1) + x(4,1) + x(5,1)
                                 + x(6,1) + x(7,1) + x(8,1) + x(9,1) + x(10,1)
                                 + x(11,1) + x(12,1) + x(13,1) + x(14,1)  = 1
 in_degree(2)#1:                 x(1,2) + x(2,2) + x(3,2) + x(4,2) + x(5,2)
                                 + x(6,2) + x(7,2) + x(8,2) + x(9,2) + x(10,2)
                                 + x(11,2) + x(12,2) + x(13,2) + x(14,2)  = 1
 in_degree(3)#2:                 x(1,3) + x(2,3) + x(3,3) + x(4,3) + x(5,3)
                                 + x(6,3) + x(7,3) + x(8,3) + x(9,3) + x(10,3)
                                 + x(11,3) + x(12,3) + x(13,3) + x(14,3)  = 1
 in_degree(4)#3:                 x(1,4) + x(2,4) + x(3,4) + x(4,4) + x(5,4)
                                 + x(6,4) + x(7,4) + x(8,4) + x(9,4) + x(10,4)
                                 + x(11,4) + x(12,4) + x(13,4) + x(14,4)  = 1
 in_degree(5)#4:                 x(1,5) + x(2,5) + x(3,5) + x(4,5) + x(5,5)
                                 + x(6,5) + x(7,5) + x(8,5) + x(9,5) + x(10,5)
                                 + x(11,5) + x(12,5) + x(13,5) + x(14,5)  = 1
 in_degree(6)#5:                 x(1,6) + x(2,6) + x(3,6) + x(4,6) + x(5,6)
                                 + x(6,6) + x(7,6) + x(8,6) + x(9,6) + x(10,6)
                                 + x(11,6) + x(12,6) + x(13,6) + x(14,6)  = 1
 in_degree(7)#6:                 x(1,7) + x(2,7) + x(3,7) + x(4,7) + x(5,7)
                                 + x(6,7) + x(7,7) + x(8,7) + x(9,7) + x(10,7)
                                 + x(11,7) + x(12,7) + x(13,7) + x(14,7)  = 1
 in_degree(8)#7:                 x(1,8) + x(2,8) + x(3,8) + x(4,8) + x(5,8)
                                 + x(6,8) + x(7,8) + x(8,8) + x(9,8) + x(10,8)
                                 + x(11,8) + x(12,8) + x(13,8) + x(14,8)  = 1
 in_degree(9)#8:                 x(1,9) + x(2,9) + x(3,9) + x(4,9) + x(5,9)
                                 + x(6,9) + x(7,9) + x(8,9) + x(9,9) + x(10,9)
                                 + x(11,9) + x(12,9) + x(13,9) + x(14,9)  = 1
 in_degree(10)#9:                x(1,10) + x(2,10) + x(3,10) + x(4,10)
                                 + x(5,10) + x(6,10) + x(7,10) + x(8,10)
                                 + x(9,10) + x(10,10) + x(11,10) + x(12,10)
                                 + x(13,10) + x(14,10)  = 1
 in_degree(11)#10:               x(1,11) + x(2,11) + x(3,11) + x(4,11)
                                 + x(5,11) + x(6,11) + x(7,11) + x(8,11)
                                 + x(9,11) + x(10,11) + x(11,11) + x(12,11)
                                 + x(13,11) + x(14,11)  = 1
 in_degree(12)#11:               x(1,12) + x(2,12) + x(3,12) + x(4,12)
                                 + x(5,12) + x(6,12) + x(7,12) + x(8,12)
                                 + x(9,12) + x(10,12) + x(11,12) + x(12,12)
                                 + x(13,12) + x(14,12)  = 1
 in_degree(13)#12:               x(1,13) + x(2,13) + x(3,13) + x(4,13)
                                 + x(5,13) + x(6,13) + x(7,13) + x(8,13)
                                 + x(9,13) + x(10,13) + x(11,13) + x(12,13)
                                 + x(13,13) + x(14,13)  = 1
 in_degree(14)#13:               x(1,14) + x(2,14) + x(3,14) + x(4,14)
                                 + x(5,14) + x(6,14) + x(7,14) + x(8,14)
                                 + x(9,14) + x(10,14) + x(11,14) + x(12,14)
                                 + x(13,14) + x(14,14)  = 1
 out_degree(1)#14:               x(1,1) + x(1,2) + x(1,3) + x(1,4) + x(1,5)
                                 + x(1,6) + x(1,7) + x(1,8) + x(1,9) + x(1,10)
                                 + x(1,11) + x(1,12) + x(1,13) + x(1,14)  = 1
 out_degree(2)#15:               x(2,1) + x(2,2) + x(2,3) + x(2,4) + x(2,5)
                                 + x(2,6) + x(2,7) + x(2,8) + x(2,9) + x(2,10)
                                 + x(2,11) + x(2,12) + x(2,13) + x(2,14)  = 1
 out_degree(3)#16:               x(3,1) + x(3,2) + x(3,3) + x(3,4) + x(3,5)
                                 + x(3,6) + x(3,7) + x(3,8) + x(3,9) + x(3,10)
                                 + x(3,11) + x(3,12) + x(3,13) + x(3,14)  = 1
 out_degree(4)#17:               x(4,1) + x(4,2) + x(4,3) + x(4,4) + x(4,5)
                                 + x(4,6) + x(4,7) + x(4,8) + x(4,9) + x(4,10)
                                 + x(4,11) + x(4,12) + x(4,13) + x(4,14)  = 1
 out_degree(5)#18:               x(5,1) + x(5,2) + x(5,3) + x(5,4) + x(5,5)
                                 + x(5,6) + x(5,7) + x(5,8) + x(5,9) + x(5,10)
                                 + x(5,11) + x(5,12) + x(5,13) + x(5,14)  = 1
 out_degree(6)#19:               x(6,1) + x(6,2) + x(6,3) + x(6,4) + x(6,5)
                                 + x(6,6) + x(6,7) + x(6,8) + x(6,9) + x(6,10)
                                 + x(6,11) + x(6,12) + x(6,13) + x(6,14)  = 1
 out_degree(7)#20:               x(7,1) + x(7,2) + x(7,3) + x(7,4) + x(7,5)
                                 + x(7,6) + x(7,7) + x(7,8) + x(7,9) + x(7,10)
                                 + x(7,11) + x(7,12) + x(7,13) + x(7,14)  = 1
 out_degree(8)#21:               x(8,1) + x(8,2) + x(8,3) + x(8,4) + x(8,5)
                                 + x(8,6) + x(8,7) + x(8,8) + x(8,9) + x(8,10)
                                 + x(8,11) + x(8,12) + x(8,13) + x(8,14)  = 1
 out_degree(9)#22:               x(9,1) + x(9,2) + x(9,3) + x(9,4) + x(9,5)
                                 + x(9,6) + x(9,7) + x(9,8) + x(9,9) + x(9,10)
                                 + x(9,11) + x(9,12) + x(9,13) + x(9,14)  = 1
 out_degree(10)#23:              x(10,1) + x(10,2) + x(10,3) + x(10,4)
                                 + x(10,5) + x(10,6) + x(10,7) + x(10,8)
                                 + x(10,9) + x(10,10) + x(10,11) + x(10,12)
                                 + x(10,13) + x(10,14)  = 1
 out_degree(11)#24:              x(11,1) + x(11,2) + x(11,3) + x(11,4)
                                 + x(11,5) + x(11,6) + x(11,7) + x(11,8)
                                 + x(11,9) + x(11,10) + x(11,11) + x(11,12)
                                 + x(11,13) + x(11,14)  = 1
 out_degree(12)#25:              x(12,1) + x(12,2) + x(12,3) + x(12,4)
                                 + x(12,5) + x(12,6) + x(12,7) + x(12,8)
                                 + x(12,9) + x(12,10) + x(12,11) + x(12,12)
                                 + x(12,13) + x(12,14)  = 1
 out_degree(13)#26:              x(13,1) + x(13,2) + x(13,3) + x(13,4)
                                 + x(13,5) + x(13,6) + x(13,7) + x(13,8)
                                 + x(13,9) + x(13,10) + x(13,11) + x(13,12)
                                 + x(13,13) + x(13,14)  = 1
 out_degree(14)#27:              x(14,1) + x(14,2) + x(14,3) + x(14,4)
                                 + x(14,5) + x(14,6) + x(14,7) + x(14,8)
                                 + x(14,9) + x(14,10) + x(14,11) + x(14,12)
                                 + x(14,13) + x(14,14)  = 1
 in_flow_out_flow_node_(2)#28:   y(1,2) - y(2,1) - y(2,3) - y(2,4) - y(2,5)
                                 - y(2,6) - y(2,7) - y(2,8) - y(2,9) - y(2,10)
                                 - y(2,11) - y(2,12) - y(2,13) - y(2,14)
                                 + y(3,2) + y(4,2) + y(5,2) + y(6,2) + y(7,2)
                                 + y(8,2) + y(9,2) + y(10,2) + y(11,2)
                                 + y(12,2) + y(13,2) + y(14,2)  = 1
 in_flow_out_flow_node_(3)#29:   y(1,3) + y(2,3) - y(3,1) - y(3,2) - y(3,4)
                                 - y(3,5) - y(3,6) - y(3,7) - y(3,8) - y(3,9)
                                 - y(3,10) - y(3,11) - y(3,12) - y(3,13)
                                 - y(3,14) + y(4,3) + y(5,3) + y(6,3) + y(7,3)
                                 + y(8,3) + y(9,3) + y(10,3) + y(11,3)
                                 + y(12,3) + y(13,3) + y(14,3)  = 1
 in_flow_out_flow_node_(4)#30:   y(1,4) + y(2,4) + y(3,4) - y(4,1) - y(4,2)
                                 - y(4,3) - y(4,5) - y(4,6) - y(4,7) - y(4,8)
                                 - y(4,9) - y(4,10) - y(4,11) - y(4,12)
                                 - y(4,13) - y(4,14) + y(5,4) + y(6,4) + y(7,4)
                                 + y(8,4) + y(9,4) + y(10,4) + y(11,4)
                                 + y(12,4) + y(13,4) + y(14,4)  = 1
 in_flow_out_flow_node_(5)#31:   y(1,5) + y(2,5) + y(3,5) + y(4,5) - y(5,1)
                                 - y(5,2) - y(5,3) - y(5,4) - y(5,6) - y(5,7)
                                 - y(5,8) - y(5,9) - y(5,10) - y(5,11)
                                 - y(5,12) - y(5,13) - y(5,14) + y(6,5)
                                 + y(7,5) + y(8,5) + y(9,5) + y(10,5) + y(11,5)
                                 + y(12,5) + y(13,5) + y(14,5)  = 1
 in_flow_out_flow_node_(6)#32:   y(1,6) + y(2,6) + y(3,6) + y(4,6) + y(5,6)
                                 - y(6,1) - y(6,2) - y(6,3) - y(6,4) - y(6,5)
                                 - y(6,7) - y(6,8) - y(6,9) - y(6,10) - y(6,11)
                                 - y(6,12) - y(6,13) - y(6,14) + y(7,6)
                                 + y(8,6) + y(9,6) + y(10,6) + y(11,6)
                                 + y(12,6) + y(13,6) + y(14,6)  = 1
 in_flow_out_flow_node_(7)#33:   y(1,7) + y(2,7) + y(3,7) + y(4,7) + y(5,7)
                                 + y(6,7) - y(7,1) - y(7,2) - y(7,3) - y(7,4)
                                 - y(7,5) - y(7,6) - y(7,8) - y(7,9) - y(7,10)
                                 - y(7,11) - y(7,12) - y(7,13) - y(7,14)
                                 + y(8,7) + y(9,7) + y(10,7) + y(11,7)
                                 + y(12,7) + y(13,7) + y(14,7)  = 1
 in_flow_out_flow_node_(8)#34:   y(1,8) + y(2,8) + y(3,8) + y(4,8) + y(5,8)
                                 + y(6,8) + y(7,8) - y(8,1) - y(8,2) - y(8,3)
                                 - y(8,4) - y(8,5) - y(8,6) - y(8,7) - y(8,9)
                                 - y(8,10) - y(8,11) - y(8,12) - y(8,13)
                                 - y(8,14) + y(9,8) + y(10,8) + y(11,8)
                                 + y(12,8) + y(13,8) + y(14,8)  = 1
 in_flow_out_flow_node_(9)#35:   y(1,9) + y(2,9) + y(3,9) + y(4,9) + y(5,9)
                                 + y(6,9) + y(7,9) + y(8,9) - y(9,1) - y(9,2)
                                 - y(9,3) - y(9,4) - y(9,5) - y(9,6) - y(9,7)
                                 - y(9,8) - y(9,10) - y(9,11) - y(9,12)
                                 - y(9,13) - y(9,14) + y(10,9) + y(11,9)
                                 + y(12,9) + y(13,9) + y(14,9)  = 1
 in_flow_out_flow_node_(10)#36:  y(1,10) + y(2,10) + y(3,10) + y(4,10)
                                 + y(5,10) + y(6,10) + y(7,10) + y(8,10)
                                 + y(9,10) - y(10,1) - y(10,2) - y(10,3)
                                 - y(10,4) - y(10,5) - y(10,6) - y(10,7)
                                 - y(10,8) - y(10,9) - y(10,11) - y(10,12)
                                 - y(10,13) - y(10,14) + y(11,10) + y(12,10)
                                 + y(13,10) + y(14,10)  = 1
 in_flow_out_flow_node_(11)#37:  y(1,11) + y(2,11) + y(3,11) + y(4,11)
                                 + y(5,11) + y(6,11) + y(7,11) + y(8,11)
                                 + y(9,11) + y(10,11) - y(11,1) - y(11,2)
                                 - y(11,3) - y(11,4) - y(11,5) - y(11,6)
                                 - y(11,7) - y(11,8) - y(11,9) - y(11,10)
                                 - y(11,12) - y(11,13) - y(11,14) + y(12,11)
                                 + y(13,11) + y(14,11)  = 1
 in_flow_out_flow_node_(12)#38:  y(1,12) + y(2,12) + y(3,12) + y(4,12)
                                 + y(5,12) + y(6,12) + y(7,12) + y(8,12)
                                 + y(9,12) + y(10,12) + y(11,12) - y(12,1)
                                 - y(12,2) - y(12,3) - y(12,4) - y(12,5)
                                 - y(12,6) - y(12,7) - y(12,8) - y(12,9)
                                 - y(12,10) - y(12,11) - y(12,13) - y(12,14)
                                 + y(13,12) + y(14,12)  = 1
 in_flow_out_flow_node_(13)#39:  y(1,13) + y(2,13) + y(3,13) + y(4,13)
                                 + y(5,13) + y(6,13) + y(7,13) + y(8,13)
                                 + y(9,13) + y(10,13) + y(11,13) + y(12,13)
                                 - y(13,1) - y(13,2) - y(13,3) - y(13,4)
                                 - y(13,5) - y(13,6) - y(13,7) - y(13,8)
                                 - y(13,9) - y(13,10) - y(13,11) - y(13,12)
                                 - y(13,14) + y(14,13)  = 1
 in_flow_out_flow_node_(14)#40:  y(1,14) + y(2,14) + y(3,14) + y(4,14)
                                 + y(5,14) + y(6,14) + y(7,14) + y(8,14)
                                 + y(9,14) + y(10,14) + y(11,14) + y(12,14)
                                 + y(13,14) - y(14,1) - y(14,2) - y(14,3)
                                 - y(14,4) - y(14,5) - y(14,6) - y(14,7)
                                 - y(14,8) - y(14,9) - y(14,10) - y(14,11)
                                 - y(14,12) - y(14,13)  = 1
 out_flow(1,2)#41:               - 13 x(1,2) + y(1,2)  = 0
 out_flow(1,3)#42:               - 13 x(1,3) + y(1,3)  = 0
 out_flow(1,4)#43:               - 13 x(1,4) + y(1,4)  = 0
 out_flow(1,5)#44:               - 13 x(1,5) + y(1,5)  = 0
 out_flow(1,6)#45:               - 13 x(1,6) + y(1,6)  = 0
 out_flow(1,7)#46:               - 13 x(1,7) + y(1,7)  = 0
 out_flow(1,8)#47:               - 13 x(1,8) + y(1,8)  = 0
 out_flow(1,9)#48:               - 13 x(1,9) + y(1,9)  = 0
 out_flow(1,10)#49:              - 13 x(1,10) + y(1,10)  = 0
 out_flow(1,11)#50:              - 13 x(1,11) + y(1,11)  = 0
 out_flow(1,12)#51:              - 13 x(1,12) + y(1,12)  = 0
 out_flow(1,13)#52:              - 13 x(1,13) + y(1,13)  = 0
 out_flow(1,14)#53:              - 13 x(1,14) + y(1,14)  = 0
 linking_constraints_(2,3)#54:   - 12 x(2,3) + y(2,3) <= 0
 linking_constraints_(2,4)#55:   - 12 x(2,4) + y(2,4) <= 0
 linking_constraints_(2,5)#56:   - 12 x(2,5) + y(2,5) <= 0
 linking_constraints_(2,6)#57:   - 12 x(2,6) + y(2,6) <= 0
 linking_constraints_(2,7)#58:   - 12 x(2,7) + y(2,7) <= 0
 linking_constraints_(2,8)#59:   - 12 x(2,8) + y(2,8) <= 0
 linking_constraints_(2,9)#60:   - 12 x(2,9) + y(2,9) <= 0
 linking_constraints_(2,10)#61:  - 12 x(2,10) + y(2,10) <= 0
 linking_constraints_(2,11)#62:  - 12 x(2,11) + y(2,11) <= 0
 linking_constraints_(2,12)#63:  - 12 x(2,12) + y(2,12) <= 0
 linking_constraints_(2,13)#64:  - 12 x(2,13) + y(2,13) <= 0
 linking_constraints_(2,14)#65:  - 12 x(2,14) + y(2,14) <= 0
 linking_constraints_(3,2)#66:   - 12 x(3,2) + y(3,2) <= 0
 linking_constraints_(3,4)#67:   - 12 x(3,4) + y(3,4) <= 0
 linking_constraints_(3,5)#68:   - 12 x(3,5) + y(3,5) <= 0
 linking_constraints_(3,6)#69:   - 12 x(3,6) + y(3,6) <= 0
 linking_constraints_(3,7)#70:   - 12 x(3,7) + y(3,7) <= 0
 linking_constraints_(3,8)#71:   - 12 x(3,8) + y(3,8) <= 0
 linking_constraints_(3,9)#72:   - 12 x(3,9) + y(3,9) <= 0
 linking_constraints_(3,10)#73:  - 12 x(3,10) + y(3,10) <= 0
 linking_constraints_(3,11)#74:  - 12 x(3,11) + y(3,11) <= 0
 linking_constraints_(3,12)#75:  - 12 x(3,12) + y(3,12) <= 0
 linking_constraints_(3,13)#76:  - 12 x(3,13) + y(3,13) <= 0
 linking_constraints_(3,14)#77:  - 12 x(3,14) + y(3,14) <= 0
 linking_constraints_(4,2)#78:   - 12 x(4,2) + y(4,2) <= 0
 linking_constraints_(4,3)#79:   - 12 x(4,3) + y(4,3) <= 0
 linking_constraints_(4,5)#80:   - 12 x(4,5) + y(4,5) <= 0
 linking_constraints_(4,6)#81:   - 12 x(4,6) + y(4,6) <= 0
 linking_constraints_(4,7)#82:   - 12 x(4,7) + y(4,7) <= 0
 linking_constraints_(4,8)#83:   - 12 x(4,8) + y(4,8) <= 0
 linking_constraints_(4,9)#84:   - 12 x(4,9) + y(4,9) <= 0
 linking_constraints_(4,10)#85:  - 12 x(4,10) + y(4,10) <= 0
 linking_constraints_(4,11)#86:  - 12 x(4,11) + y(4,11) <= 0
 linking_constraints_(4,12)#87:  - 12 x(4,12) + y(4,12) <= 0
 linking_constraints_(4,13)#88:  - 12 x(4,13) + y(4,13) <= 0
 linking_constraints_(4,14)#89:  - 12 x(4,14) + y(4,14) <= 0
 linking_constraints_(5,2)#90:   - 12 x(5,2) + y(5,2) <= 0
 linking_constraints_(5,3)#91:   - 12 x(5,3) + y(5,3) <= 0
 linking_constraints_(5,4)#92:   - 12 x(5,4) + y(5,4) <= 0
 linking_constraints_(5,6)#93:   - 12 x(5,6) + y(5,6) <= 0
 linking_constraints_(5,7)#94:   - 12 x(5,7) + y(5,7) <= 0
 linking_constraints_(5,8)#95:   - 12 x(5,8) + y(5,8) <= 0
 linking_constraints_(5,9)#96:   - 12 x(5,9) + y(5,9) <= 0
 linking_constraints_(5,10)#97:  - 12 x(5,10) + y(5,10) <= 0
 linking_constraints_(5,11)#98:  - 12 x(5,11) + y(5,11) <= 0
 linking_constraints_(5,12)#99:  - 12 x(5,12) + y(5,12) <= 0
 linking_constraints_(5,13)#100: - 12 x(5,13) + y(5,13) <= 0
 linking_constraints_(5,14)#101: - 12 x(5,14) + y(5,14) <= 0
 linking_constraints_(6,2)#102:  - 12 x(6,2) + y(6,2) <= 0
 linking_constraints_(6,3)#103:  - 12 x(6,3) + y(6,3) <= 0
 linking_constraints_(6,4)#104:  - 12 x(6,4) + y(6,4) <= 0
 linking_constraints_(6,5)#105:  - 12 x(6,5) + y(6,5) <= 0
 linking_constraints_(6,7)#106:  - 12 x(6,7) + y(6,7) <= 0
 linking_constraints_(6,8)#107:  - 12 x(6,8) + y(6,8) <= 0
 linking_constraints_(6,9)#108:  - 12 x(6,9) + y(6,9) <= 0
 linking_constraints_(6,10)#109: - 12 x(6,10) + y(6,10) <= 0
 linking_constraints_(6,11)#110: - 12 x(6,11) + y(6,11) <= 0
 linking_constraints_(6,12)#111: - 12 x(6,12) + y(6,12) <= 0
 linking_constraints_(6,13)#112: - 12 x(6,13) + y(6,13) <= 0
 linking_constraints_(6,14)#113: - 12 x(6,14) + y(6,14) <= 0
 linking_constraints_(7,2)#114:  - 12 x(7,2) + y(7,2) <= 0
 linking_constraints_(7,3)#115:  - 12 x(7,3) + y(7,3) <= 0
 linking_constraints_(7,4)#116:  - 12 x(7,4) + y(7,4) <= 0
 linking_constraints_(7,5)#117:  - 12 x(7,5) + y(7,5) <= 0
 linking_constraints_(7,6)#118:  - 12 x(7,6) + y(7,6) <= 0
 linking_constraints_(7,8)#119:  - 12 x(7,8) + y(7,8) <= 0
 linking_constraints_(7,9)#120:  - 12 x(7,9) + y(7,9) <= 0
 linking_constraints_(7,10)#121: - 12 x(7,10) + y(7,10) <= 0
 linking_constraints_(7,11)#122: - 12 x(7,11) + y(7,11) <= 0
 linking_constraints_(7,12)#123: - 12 x(7,12) + y(7,12) <= 0
 linking_constraints_(7,13)#124: - 12 x(7,13) + y(7,13) <= 0
 linking_constraints_(7,14)#125: - 12 x(7,14) + y(7,14) <= 0
 linking_constraints_(8,2)#126:  - 12 x(8,2) + y(8,2) <= 0
 linking_constraints_(8,3)#127:  - 12 x(8,3) + y(8,3) <= 0
 linking_constraints_(8,4)#128:  - 12 x(8,4) + y(8,4) <= 0
 linking_constraints_(8,5)#129:  - 12 x(8,5) + y(8,5) <= 0
 linking_constraints_(8,6)#130:  - 12 x(8,6) + y(8,6) <= 0
 linking_constraints_(8,7)#131:  - 12 x(8,7) + y(8,7) <= 0
 linking_constraints_(8,9)#132:  - 12 x(8,9) + y(8,9) <= 0
 linking_constraints_(8,10)#133: - 12 x(8,10) + y(8,10) <= 0
 linking_constraints_(8,11)#134: - 12 x(8,11) + y(8,11) <= 0
 linking_constraints_(8,12)#135: - 12 x(8,12) + y(8,12) <= 0
 linking_constraints_(8,13)#136: - 12 x(8,13) + y(8,13) <= 0
 linking_constraints_(8,14)#137: - 12 x(8,14) + y(8,14) <= 0
 linking_constraints_(9,2)#138:  - 12 x(9,2) + y(9,2) <= 0
 linking_constraints_(9,3)#139:  - 12 x(9,3) + y(9,3) <= 0
 linking_constraints_(9,4)#140:  - 12 x(9,4) + y(9,4) <= 0
 linking_constraints_(9,5)#141:  - 12 x(9,5) + y(9,5) <= 0
 linking_constraints_(9,6)#142:  - 12 x(9,6) + y(9,6) <= 0
 linking_constraints_(9,7)#143:  - 12 x(9,7) + y(9,7) <= 0
 linking_constraints_(9,8)#144:  - 12 x(9,8) + y(9,8) <= 0
 linking_constraints_(9,10)#145: - 12 x(9,10) + y(9,10) <= 0
 linking_constraints_(9,11)#146: - 12 x(9,11) + y(9,11) <= 0
 linking_constraints_(9,12)#147: - 12 x(9,12) + y(9,12) <= 0
 linking_constraints_(9,13)#148: - 12 x(9,13) + y(9,13) <= 0
 linking_constraints_(9,14)#149: - 12 x(9,14) + y(9,14) <= 0
 linking_constraints_(10,2)#150: - 12 x(10,2) + y(10,2) <= 0
 linking_constraints_(10,3)#151: - 12 x(10,3) + y(10,3) <= 0
 linking_constraints_(10,4)#152: - 12 x(10,4) + y(10,4) <= 0
 linking_constraints_(10,5)#153: - 12 x(10,5) + y(10,5) <= 0
 linking_constraints_(10,6)#154: - 12 x(10,6) + y(10,6) <= 0
 linking_constraints_(10,7)#155: - 12 x(10,7) + y(10,7) <= 0
 linking_constraints_(10,8)#156: - 12 x(10,8) + y(10,8) <= 0
 linking_constraints_(10,9)#157: - 12 x(10,9) + y(10,9) <= 0
 linking_constraints_(10,11)#158: - 12 x(10,11) + y(10,11) <= 0
 linking_constraints_(10,12)#159: - 12 x(10,12) + y(10,12) <= 0
 linking_constraints_(10,13)#160: - 12 x(10,13) + y(10,13) <= 0
 linking_constraints_(10,14)#161: - 12 x(10,14) + y(10,14) <= 0
 linking_constraints_(11,2)#162: - 12 x(11,2) + y(11,2) <= 0
 linking_constraints_(11,3)#163: - 12 x(11,3) + y(11,3) <= 0
 linking_constraints_(11,4)#164: - 12 x(11,4) + y(11,4) <= 0
 linking_constraints_(11,5)#165: - 12 x(11,5) + y(11,5) <= 0
 linking_constraints_(11,6)#166: - 12 x(11,6) + y(11,6) <= 0
 linking_constraints_(11,7)#167: - 12 x(11,7) + y(11,7) <= 0
 linking_constraints_(11,8)#168: - 12 x(11,8) + y(11,8) <= 0
 linking_constraints_(11,9)#169: - 12 x(11,9) + y(11,9) <= 0
 linking_constraints_(11,10)#170: - 12 x(11,10) + y(11,10) <= 0
 linking_constraints_(11,12)#171: - 12 x(11,12) + y(11,12) <= 0
 linking_constraints_(11,13)#172: - 12 x(11,13) + y(11,13) <= 0
 linking_constraints_(11,14)#173: - 12 x(11,14) + y(11,14) <= 0
 linking_constraints_(12,2)#174: - 12 x(12,2) + y(12,2) <= 0
 linking_constraints_(12,3)#175: - 12 x(12,3) + y(12,3) <= 0
 linking_constraints_(12,4)#176: - 12 x(12,4) + y(12,4) <= 0
 linking_constraints_(12,5)#177: - 12 x(12,5) + y(12,5) <= 0
 linking_constraints_(12,6)#178: - 12 x(12,6) + y(12,6) <= 0
 linking_constraints_(12,7)#179: - 12 x(12,7) + y(12,7) <= 0
 linking_constraints_(12,8)#180: - 12 x(12,8) + y(12,8) <= 0
 linking_constraints_(12,9)#181: - 12 x(12,9) + y(12,9) <= 0
 linking_constraints_(12,10)#182: - 12 x(12,10) + y(12,10) <= 0
 linking_constraints_(12,11)#183: - 12 x(12,11) + y(12,11) <= 0
 linking_constraints_(12,13)#184: - 12 x(12,13) + y(12,13) <= 0
 linking_constraints_(12,14)#185: - 12 x(12,14) + y(12,14) <= 0
 linking_constraints_(13,2)#186: - 12 x(13,2) + y(13,2) <= 0
 linking_constraints_(13,3)#187: - 12 x(13,3) + y(13,3) <= 0
 linking_constraints_(13,4)#188: - 12 x(13,4) + y(13,4) <= 0
 linking_constraints_(13,5)#189: - 12 x(13,5) + y(13,5) <= 0
 linking_constraints_(13,6)#190: - 12 x(13,6) + y(13,6) <= 0
 linking_constraints_(13,7)#191: - 12 x(13,7) + y(13,7) <= 0
 linking_constraints_(13,8)#192: - 12 x(13,8) + y(13,8) <= 0
 linking_constraints_(13,9)#193: - 12 x(13,9) + y(13,9) <= 0
 linking_constraints_(13,10)#194: - 12 x(13,10) + y(13,10) <= 0
 linking_constraints_(13,11)#195: - 12 x(13,11) + y(13,11) <= 0
 linking_constraints_(13,12)#196: - 12 x(13,12) + y(13,12) <= 0
 linking_constraints_(13,14)#197: - 12 x(13,14) + y(13,14) <= 0
 linking_constraints_(14,2)#198: - 12 x(14,2) + y(14,2) <= 0
 linking_constraints_(14,3)#199: - 12 x(14,3) + y(14,3) <= 0
 linking_constraints_(14,4)#200: - 12 x(14,4) + y(14,4) <= 0
 linking_constraints_(14,5)#201: - 12 x(14,5) + y(14,5) <= 0
 linking_constraints_(14,6)#202: - 12 x(14,6) + y(14,6) <= 0
 linking_constraints_(14,7)#203: - 12 x(14,7) + y(14,7) <= 0
 linking_constraints_(14,8)#204: - 12 x(14,8) + y(14,8) <= 0
 linking_constraints_(14,9)#205: - 12 x(14,9) + y(14,9) <= 0
 linking_constraints_(14,10)#206: - 12 x(14,10) + y(14,10) <= 0
 linking_constraints_(14,11)#207: - 12 x(14,11) + y(14,11) <= 0
 linking_constraints_(14,12)#208: - 12 x(14,12) + y(14,12) <= 0
 linking_constraints_(14,13)#209: - 12 x(14,13) + y(14,13) <= 0
Bounds
      x(1,1) = 0
 0 <= x(1,2) <= 1
 0 <= x(1,3) <= 1
 0 <= x(1,4) <= 1
 0 <= x(1,5) <= 1
 0 <= x(1,6) <= 1
 0 <= x(1,7) <= 1
 0 <= x(1,8) <= 1
 0 <= x(1,9) <= 1
 0 <= x(1,10) <= 1
 0 <= x(1,11) <= 1
 0 <= x(1,12) <= 1
 0 <= x(1,13) <= 1
 0 <= x(1,14) <= 1
 0 <= x(2,1) <= 1
      x(2,2) = 0
 0 <= x(2,3) <= 1
 0 <= x(2,4) <= 1
 0 <= x(2,5) <= 1
 0 <= x(2,6) <= 1
 0 <= x(2,7) <= 1
 0 <= x(2,8) <= 1
 0 <= x(2,9) <= 1
 0 <= x(2,10) <= 1
 0 <= x(2,11) <= 1
 0 <= x(2,12) <= 1
 0 <= x(2,13) <= 1
 0 <= x(2,14) <= 1
 0 <= x(3,1) <= 1
 0 <= x(3,2) <= 1
      x(3,3) = 0
 0 <= x(3,4) <= 1
 0 <= x(3,5) <= 1
 0 <= x(3,6) <= 1
 0 <= x(3,7) <= 1
 0 <= x(3,8) <= 1
 0 <= x(3,9) <= 1
 0 <= x(3,10) <= 1
 0 <= x(3,11) <= 1
 0 <= x(3,12) <= 1
 0 <= x(3,13) <= 1
 0 <= x(3,14) <= 1
 0 <= x(4,1) <= 1
 0 <= x(4,2) <= 1
 0 <= x(4,3) <= 1
      x(4,4) = 0
 0 <= x(4,5) <= 1
 0 <= x(4,6) <= 1
 0 <= x(4,7) <= 1
 0 <= x(4,8) <= 1
 0 <= x(4,9) <= 1
 0 <= x(4,10) <= 1
 0 <= x(4,11) <= 1
 0 <= x(4,12) <= 1
 0 <= x(4,13) <= 1
 0 <= x(4,14) <= 1
 0 <= x(5,1) <= 1
 0 <= x(5,2) <= 1
 0 <= x(5,3) <= 1
 0 <= x(5,4) <= 1
      x(5,5) = 0
 0 <= x(5,6) <= 1
 0 <= x(5,7) <= 1
 0 <= x(5,8) <= 1
 0 <= x(5,9) <= 1
 0 <= x(5,10) <= 1
 0 <= x(5,11) <= 1
 0 <= x(5,12) <= 1
 0 <= x(5,13) <= 1
 0 <= x(5,14) <= 1
 0 <= x(6,1) <= 1
 0 <= x(6,2) <= 1
 0 <= x(6,3) <= 1
 0 <= x(6,4) <= 1
 0 <= x(6,5) <= 1
      x(6,6) = 0
 0 <= x(6,7) <= 1
 0 <= x(6,8) <= 1
 0 <= x(6,9) <= 1
 0 <= x(6,10) <= 1
 0 <= x(6,11) <= 1
 0 <= x(6,12) <= 1
 0 <= x(6,13) <= 1
 0 <= x(6,14) <= 1
 0 <= x(7,1) <= 1
 0 <= x(7,2) <= 1
 0 <= x(7,3) <= 1
 0 <= x(7,4) <= 1
 0 <= x(7,5) <= 1
 0 <= x(7,6) <= 1
      x(7,7) = 0
 0 <= x(7,8) <= 1
 0 <= x(7,9) <= 1
 0 <= x(7,10) <= 1
 0 <= x(7,11) <= 1
 0 <= x(7,12) <= 1
 0 <= x(7,13) <= 1
 0 <= x(7,14) <= 1
 0 <= x(8,1) <= 1
 0 <= x(8,2) <= 1
 0 <= x(8,3) <= 1
 0 <= x(8,4) <= 1
 0 <= x(8,5) <= 1
 0 <= x(8,6) <= 1
 0 <= x(8,7) <= 1
      x(8,8) = 0
 0 <= x(8,9) <= 1
 0 <= x(8,10) <= 1
 0 <= x(8,11) <= 1
 0 <= x(8,12) <= 1
 0 <= x(8,13) <= 1
 0 <= x(8,14) <= 1
 0 <= x(9,1) <= 1
 0 <= x(9,2) <= 1
 0 <= x(9,3) <= 1
 0 <= x(9,4) <= 1
 0 <= x(9,5) <= 1
 0 <= x(9,6) <= 1
 0 <= x(9,7) <= 1
 0 <= x(9,8) <= 1
      x(9,9) = 0
 0 <= x(9,10) <= 1
 0 <= x(9,11) <= 1
 0 <= x(9,12) <= 1
 0 <= x(9,13) <= 1
 0 <= x(9,14) <= 1
 0 <= x(10,1) <= 1
 0 <= x(10,2) <= 1
 0 <= x(10,3) <= 1
 0 <= x(10,4) <= 1
 0 <= x(10,5) <= 1
 0 <= x(10,6) <= 1
 0 <= x(10,7) <= 1
 0 <= x(10,8) <= 1
 0 <= x(10,9) <= 1
      x(10,10) = 0
 0 <= x(10,11) <= 1
 0 <= x(10,12) <= 1
 0 <= x(10,13) <= 1
 0 <= x(10,14) <= 1
 0 <= x(11,1) <= 1
 0 <= x(11,2) <= 1
 0 <= x(11,3) <= 1
 0 <= x(11,4) <= 1
 0 <= x(11,5) <= 1
 0 <= x(11,6) <= 1
 0 <= x(11,7) <= 1
 0 <= x(11,8) <= 1
 0 <= x(11,9) <= 1
 0 <= x(11,10) <= 1
      x(11,11) = 0
 0 <= x(11,12) <= 1
 0 <= x(11,13) <= 1
 0 <= x(11,14) <= 1
 0 <= x(12,1) <= 1
 0 <= x(12,2) <= 1
 0 <= x(12,3) <= 1
 0 <= x(12,4) <= 1
 0 <= x(12,5) <= 1
 0 <= x(12,6) <= 1
 0 <= x(12,7) <= 1
 0 <= x(12,8) <= 1
 0 <= x(12,9) <= 1
 0 <= x(12,10) <= 1
 0 <= x(12,11) <= 1
      x(12,12) = 0
 0 <= x(12,13) <= 1
 0 <= x(12,14) <= 1
 0 <= x(13,1) <= 1
 0 <= x(13,2) <= 1
 0 <= x(13,3) <= 1
 0 <= x(13,4) <= 1
 0 <= x(13,5) <= 1
 0 <= x(13,6) <= 1
 0 <= x(13,7) <= 1
 0 <= x(13,8) <= 1
 0 <= x(13,9) <= 1
 0 <= x(13,10) <= 1
 0 <= x(13,11) <= 1
 0 <= x(13,12) <= 1
      x(13,13) = 0
 0 <= x(13,14) <= 1
 0 <= x(14,1) <= 1
 0 <= x(14,2) <= 1
 0 <= x(14,3) <= 1
 0 <= x(14,4) <= 1
 0 <= x(14,5) <= 1
 0 <= x(14,6) <= 1
 0 <= x(14,7) <= 1
 0 <= x(14,8) <= 1
 0 <= x(14,9) <= 1
 0 <= x(14,10) <= 1
 0 <= x(14,11) <= 1
 0 <= x(14,12) <= 1
 0 <= x(14,13) <= 1
      x(14,14) = 0
      y(1,1) = 0
 0 <= y(1,2) <= 13
 0 <= y(1,3) <= 13
 0 <= y(1,4) <= 13
 0 <= y(1,5) <= 13
 0 <= y(1,6) <= 13
 0 <= y(1,7) <= 13
 0 <= y(1,8) <= 13
 0 <= y(1,9) <= 13
 0 <= y(1,10) <= 13
 0 <= y(1,11) <= 13
 0 <= y(1,12) <= 13
 0 <= y(1,13) <= 13
 0 <= y(1,14) <= 13
      y(2,1) = 0
      y(2,2) = 0
 0 <= y(2,3) <= 12
 0 <= y(2,4) <= 12
 0 <= y(2,5) <= 12
 0 <= y(2,6) <= 12
 0 <= y(2,7) <= 12
 0 <= y(2,8) <= 12
 0 <= y(2,9) <= 12
 0 <= y(2,10) <= 12
 0 <= y(2,11) <= 12
 0 <= y(2,12) <= 12
 0 <= y(2,13) <= 12
 0 <= y(2,14) <= 12
      y(3,1) = 0
 0 <= y(3,2) <= 12
      y(3,3) = 0
 0 <= y(3,4) <= 12
 0 <= y(3,5) <= 12
 0 <= y(3,6) <= 12
 0 <= y(3,7) <= 12
 0 <= y(3,8) <= 12
 0 <= y(3,9) <= 12
 0 <= y(3,10) <= 12
 0 <= y(3,11) <= 12
 0 <= y(3,12) <= 12
 0 <= y(3,13) <= 12
 0 <= y(3,14) <= 12
      y(4,1) = 0
 0 <= y(4,2) <= 12
 0 <= y(4,3) <= 12
      y(4,4) = 0
 0 <= y(4,5) <= 12
 0 <= y(4,6) <= 12
 0 <= y(4,7) <= 12
 0 <= y(4,8) <= 12
 0 <= y(4,9) <= 12
 0 <= y(4,10) <= 12
 0 <= y(4,11) <= 12
 0 <= y(4,12) <= 12
 0 <= y(4,13) <= 12
 0 <= y(4,14) <= 12
      y(5,1) = 0
 0 <= y(5,2) <= 12
 0 <= y(5,3) <= 12
 0 <= y(5,4) <= 12
      y(5,5) = 0
 0 <= y(5,6) <= 12
 0 <= y(5,7) <= 12
 0 <= y(5,8) <= 12
 0 <= y(5,9) <= 12
 0 <= y(5,10) <= 12
 0 <= y(5,11) <= 12
 0 <= y(5,12) <= 12
 0 <= y(5,13) <= 12
 0 <= y(5,14) <= 12
      y(6,1) = 0
 0 <= y(6,2) <= 12
 0 <= y(6,3) <= 12
 0 <= y(6,4) <= 12
 0 <= y(6,5) <= 12
      y(6,6) = 0
 0 <= y(6,7) <= 12
 0 <= y(6,8) <= 12
 0 <= y(6,9) <= 12
 0 <= y(6,10) <= 12
 0 <= y(6,11) <= 12
 0 <= y(6,12) <= 12
 0 <= y(6,13) <= 12
 0 <= y(6,14) <= 12
      y(7,1) = 0
 0 <= y(7,2) <= 12
 0 <= y(7,3) <= 12
 0 <= y(7,4) <= 12
 0 <= y(7,5) <= 12
 0 <= y(7,6) <= 12
      y(7,7) = 0
 0 <= y(7,8) <= 12
 0 <= y(7,9) <= 12
 0 <= y(7,10) <= 12
 0 <= y(7,11) <= 12
 0 <= y(7,12) <= 12
 0 <= y(7,13) <= 12
 0 <= y(7,14) <= 12
      y(8,1) = 0
 0 <= y(8,2) <= 12
 0 <= y(8,3) <= 12
 0 <= y(8,4) <= 12
 0 <= y(8,5) <= 12
 0 <= y(8,6) <= 12
 0 <= y(8,7) <= 12
      y(8,8) = 0
 0 <= y(8,9) <= 12
 0 <= y(8,10) <= 12
 0 <= y(8,11) <= 12
 0 <= y(8,12) <= 12
 0 <= y(8,13) <= 12
 0 <= y(8,14) <= 12
      y(9,1) = 0
 0 <= y(9,2) <= 12
 0 <= y(9,3) <= 12
 0 <= y(9,4) <= 12
 0 <= y(9,5) <= 12
 0 <= y(9,6) <= 12
 0 <= y(9,7) <= 12
 0 <= y(9,8) <= 12
      y(9,9) = 0
 0 <= y(9,10) <= 12
 0 <= y(9,11) <= 12
 0 <= y(9,12) <= 12
 0 <= y(9,13) <= 12
 0 <= y(9,14) <= 12
      y(10,1) = 0
 0 <= y(10,2) <= 12
 0 <= y(10,3) <= 12
 0 <= y(10,4) <= 12
 0 <= y(10,5) <= 12
 0 <= y(10,6) <= 12
 0 <= y(10,7) <= 12
 0 <= y(10,8) <= 12
 0 <= y(10,9) <= 12
      y(10,10) = 0
 0 <= y(10,11) <= 12
 0 <= y(10,12) <= 12
 0 <= y(10,13) <= 12
 0 <= y(10,14) <= 12
      y(11,1) = 0
 0 <= y(11,2) <= 12
 0 <= y(11,3) <= 12
 0 <= y(11,4) <= 12
 0 <= y(11,5) <= 12
 0 <= y(11,6) <= 12
 0 <= y(11,7) <= 12
 0 <= y(11,8) <= 12
 0 <= y(11,9) <= 12
 0 <= y(11,10) <= 12
      y(11,11) = 0
 0 <= y(11,12) <= 12
 0 <= y(11,13) <= 12
 0 <= y(11,14) <= 12
      y(12,1) = 0
 0 <= y(12,2) <= 12
 0 <= y(12,3) <= 12
 0 <= y(12,4) <= 12
 0 <= y(12,5) <= 12
 0 <= y(12,6) <= 12
 0 <= y(12,7) <= 12
 0 <= y(12,8) <= 12
 0 <= y(12,9) <= 12
 0 <= y(12,10) <= 12
 0 <= y(12,11) <= 12
      y(12,12) = 0
 0 <= y(12,13) <= 12
 0 <= y(12,14) <= 12
      y(13,1) = 0
 0 <= y(13,2) <= 12
 0 <= y(13,3) <= 12
 0 <= y(13,4) <= 12
 0 <= y(13,5) <= 12
 0 <= y(13,6) <= 12
 0 <= y(13,7) <= 12
 0 <= y(13,8) <= 12
 0 <= y(13,9) <= 12
 0 <= y(13,10) <= 12
 0 <= y(13,11) <= 12
 0 <= y(13,12) <= 12
      y(13,13) = 0
 0 <= y(13,14) <= 12
      y(14,1) = 0
 0 <= y(14,2) <= 12
 0 <= y(14,3) <= 12
 0 <= y(14,4) <= 12
 0 <= y(14,5) <= 12
 0 <= y(14,6) <= 12
 0 <= y(14,7) <= 12
 0 <= y(14,8) <= 12
 0 <= y(14,9) <= 12
 0 <= y(14,10) <= 12
 0 <= y(14,11) <= 12
 0 <= y(14,12) <= 12
 0 <= y(14,13) <= 12
      y(14,14) = 0
Binaries
 x(1,1)  x(1,2)  x(1,3)  x(1,4)  x(1,5)  x(1,6)  x(1,7)  x(1,8)  x(1,9) 
 x(1,10)  x(1,11)  x(1,12)  x(1,13)  x(1,14)  x(2,1)  x(2,2)  x(2,3)  x(2,4) 
 x(2,5)  x(2,6)  x(2,7)  x(2,8)  x(2,9)  x(2,10)  x(2,11)  x(2,12)  x(2,13) 
 x(2,14)  x(3,1)  x(3,2)  x(3,3)  x(3,4)  x(3,5)  x(3,6)  x(3,7)  x(3,8) 
 x(3,9)  x(3,10)  x(3,11)  x(3,12)  x(3,13)  x(3,14)  x(4,1)  x(4,2)  x(4,3) 
 x(4,4)  x(4,5)  x(4,6)  x(4,7)  x(4,8)  x(4,9)  x(4,10)  x(4,11)  x(4,12) 
 x(4,13)  x(4,14)  x(5,1)  x(5,2)  x(5,3)  x(5,4)  x(5,5)  x(5,6)  x(5,7) 
 x(5,8)  x(5,9)  x(5,10)  x(5,11)  x(5,12)  x(5,13)  x(5,14)  x(6,1)  x(6,2) 
 x(6,3)  x(6,4)  x(6,5)  x(6,6)  x(6,7)  x(6,8)  x(6,9)  x(6,10)  x(6,11) 
 x(6,12)  x(6,13)  x(6,14)  x(7,1)  x(7,2)  x(7,3)  x(7,4)  x(7,5)  x(7,6) 
 x(7,7)  x(7,8)  x(7,9)  x(7,10)  x(7,11)  x(7,12)  x(7,13)  x(7,14)  x(8,1) 
 x(8,2)  x(8,3)  x(8,4)  x(8,5)  x(8,6)  x(8,7)  x(8,8)  x(8,9)  x(8,10) 
 x(8,11)  x(8,12)  x(8,13)  x(8,14)  x(9,1)  x(9,2)  x(9,3)  x(9,4)  x(9,5) 
 x(9,6)  x(9,7)  x(9,8)  x(9,9)  x(9,10)  x(9,11)  x(9,12)  x(9,13)  x(9,14) 
 x(10,1)  x(10,2)  x(10,3)  x(10,4)  x(10,5)  x(10,6)  x(10,7)  x(10,8) 
 x(10,9)  x(10,10)  x(10,11)  x(10,12)  x(10,13)  x(10,14)  x(11,1)  x(11,2) 
 x(11,3)  x(11,4)  x(11,5)  x(11,6)  x(11,7)  x(11,8)  x(11,9)  x(11,10) 
 x(11,11)  x(11,12)  x(11,13)  x(11,14)  x(12,1)  x(12,2)  x(12,3)  x(12,4) 
 x(12,5)  x(12,6)  x(12,7)  x(12,8)  x(12,9)  x(12,10)  x(12,11)  x(12,12) 
 x(12,13)  x(12,14)  x(13,1)  x(13,2)  x(13,3)  x(13,4)  x(13,5)  x(13,6) 
 x(13,7)  x(13,8)  x(13,9)  x(13,10)  x(13,11)  x(13,12)  x(13,13)  x(13,14) 
 x(14,1)  x(14,2)  x(14,3)  x(14,4)  x(14,5)  x(14,6)  x(14,7)  x(14,8) 
 x(14,9)  x(14,10)  x(14,11)  x(14,12)  x(14,13)  x(14,14) 
Generals
 y(1,1)  y(1,2)  y(1,3)  y(1,4)  y(1,5)  y(1,6)  y(1,7)  y(1,8)  y(1,9) 
 y(1,10)  y(1,11)  y(1,12)  y(1,13)  y(1,14)  y(2,1)  y(2,2)  y(2,3)  y(2,4) 
 y(2,5)  y(2,6)  y(2,7)  y(2,8)  y(2,9)  y(2,10)  y(2,11)  y(2,12)  y(2,13) 
 y(2,14)  y(3,1)  y(3,2)  y(3,3)  y(3,4)  y(3,5)  y(3,6)  y(3,7)  y(3,8) 
 y(3,9)  y(3,10)  y(3,11)  y(3,12)  y(3,13)  y(3,14)  y(4,1)  y(4,2)  y(4,3) 
 y(4,4)  y(4,5)  y(4,6)  y(4,7)  y(4,8)  y(4,9)  y(4,10)  y(4,11)  y(4,12) 
 y(4,13)  y(4,14)  y(5,1)  y(5,2)  y(5,3)  y(5,4)  y(5,5)  y(5,6)  y(5,7) 
 y(5,8)  y(5,9)  y(5,10)  y(5,11)  y(5,12)  y(5,13)  y(5,14)  y(6,1)  y(6,2) 
 y(6,3)  y(6,4)  y(6,5)  y(6,6)  y(6,7)  y(6,8)  y(6,9)  y(6,10)  y(6,11) 
 y(6,12)  y(6,13)  y(6,14)  y(7,1)  y(7,2)  y(7,3)  y(7,4)  y(7,5)  y(7,6) 
 y(7,7)  y(7,8)  y(7,9)  y(7,10)  y(7,11)  y(7,12)  y(7,13)  y(7,14)  y(8,1) 
 y(8,2)  y(8,3)  y(8,4)  y(8,5)  y(8,6)  y(8,7)  y(8,8)  y(8,9)  y(8,10) 
 y(8,11)  y(8,12)  y(8,13)  y(8,14)  y(9,1)  y(9,2)  y(9,3)  y(9,4)  y(9,5) 
 y(9,6)  y(9,7)  y(9,8)  y(9,9)  y(9,10)  y(9,11)  y(9,12)  y(9,13)  y(9,14) 
 y(10,1)  y(10,2)  y(10,3)  y(10,4)  y(10,5)  y(10,6)  y(10,7)  y(10,8) 
 y(10,9)  y(10,10)  y(10,11)  y(10,12)  y(10,13)  y(10,14)  y(11,1)  y(11,2) 
 y(11,3)  y(11,4)  y(11,5)  y(11,6)  y(11,7)  y(11,8)  y(11,9)  y(11,10) 
 y(11,11)  y(11,12)  y(11,13)  y(11,14)  y(12,1)  y(12,2)  y(12,3)  y(12,4) 
 y(12,5)  y(12,6)  y(12,7)  y(12,8)  y(12,9)  y(12,10)  y(12,11)  y(12,12) 
 y(12,13)  y(12,14)  y(13,1)  y(13,2)  y(13,3)  y(13,4)  y(13,5)  y(13,6) 
 y(13,7)  y(13,8)  y(13,9)  y(13,10)  y(13,11)  y(13,12)  y(13,13)  y(13,14) 
 y(14,1)  y(14,2)  y(14,3)  y(14,4)  y(14,5)  y(14,6)  y(14,7)  y(14,8) 
 y(14,9)  y(14,10)  y(14,11)  y(14,12)  y(14,13)  y(14,14) 
End
