output/log/model_GG_burma14.log
Version identifier: 20.1.0.0 | 2020-11-10 | 9bedb6d68
CPXPARAM_RandomSeed                              1234
CPXPARAM_TimeLimit                               3600
Tried aggregator 2 times.
MIP Presolve eliminated 0 rows and 41 columns.
Aggregator did 26 substitutions.
Reduced MIP has 184 rows, 325 columns, and 1118 nonzeros.
Reduced MIP has 169 binaries, 156 generals, 0 SOSs, and 0 indicators.
Presolve time = 0.01 sec. (1.11 ticks)
Found incumbent of value 8111.000000 after 0.01 sec. (2.28 ticks)
Probing time = 0.00 sec. (0.92 ticks)
Tried aggregator 1 time.
Detecting symmetries...
Reduced MIP has 184 rows, 325 columns, and 1118 nonzeros.
Reduced MIP has 169 binaries, 156 generals, 0 SOSs, and 0 indicators.
Presolve time = 0.00 sec. (0.79 ticks)
Probing time = 0.00 sec. (0.91 ticks)
Clique table members: 37.
MIP emphasis: balance optimality and feasibility.
MIP search method: dynamic search.
Parallel mode: deterministic, using up to 8 threads.
Root relaxation solution time = 0.00 sec. (1.20 ticks)

        Nodes                                         Cuts/
   Node  Left     Objective  IInf  Best Integer    Best Bound    ItCnt     Gap

*     0+    0                         8111.0000        0.0000           100.00%
      0     0     3026.7756    26     8111.0000     3026.7756      124   62.68%
      0     0     3149.0278    27     8111.0000      Cuts: 55      196   61.18%
      0     0     3216.9416    56     8111.0000      Cuts: 48      293   60.34%
      0     0     3302.8027    54     8111.0000      Cuts: 23      470   59.28%
      0     0     3320.3104    60     8111.0000      Cuts: 23      589   59.06%
      0     0     3321.2645    63     8111.0000      Cuts: 25      635   59.05%
Detecting symmetries...
*     0+    0                         3323.0000     3321.2645             0.05%
      0     0        cutoff           3323.0000     3323.0000      668    0.00%
Elapsed time = 0.18 sec. (124.01 ticks, tree = 0.01 MB, solutions = 2)

Cover cuts applied:  7
Implied bound cuts applied:  19
Flow cuts applied:  19
Mixed integer rounding cuts applied:  1
Zero-half cuts applied:  4
Lift and project cuts applied:  5
Gomory fractional cuts applied:  2

Root node processing (before b&c):
  Real time             =    0.18 sec. (124.03 ticks)
Parallel b&c, 8 threads:
  Real time             =    0.00 sec. (0.00 ticks)
  Sync time (average)   =    0.00 sec.
  Wait time (average)   =    0.00 sec.
                          ------------
Total (root+branch&cut) =    0.18 sec. (124.03 ticks)
